##TITLE=Salicylic Acid
##JCAMP-DX=4.24
##DATA TYPE=UV/VIS SPECTRUM
##ORIGIN=INSTITUTE OF ENERGY PROBLEMS OF CHEMICAL PHYSICS, RAS
##OWNER=INEP CP RAS, NIST OSRD
Collection (C) 2007 copyright by the U.S. Secretary of Commerce
on behalf of the United States of America. All rights reserved.
##CAS REGISTRY NO=69-72-7
##MOLFORM=C7H6O3
##MP=158
##BP=211(20)
##SOURCE REFERENCE=RAS UV No. 237
##$NIST SQUIB=1963ERN/MEN230-240
##$NIST SOURCE=TSGMTE
##SPECTROMETER/DATA SYSTEM=Unicam SP 500
##XUNITS=Wavelength (nm)
##YUNITS=Logarithm epsilon
##XFACTOR=1.000000
##YFACTOR=1.000000
##FIRSTX=247.1048
##LASTX=340.0658
##FIRSTY=3.14445
##MAXX=340.066
##MINX=247.105
##MAXY=3.19782
##MINY=1.25709
##NPOINTS=1449
##$REF AUTHOR=Ernst, Z.L.; Menashi, J.
##$REF TITLE=The spectrophotometric determination of the dissociation constants of some substituted salicylic acids
##$REF JOURNAL=Trans. Faraday Soc.
##$REF VOLUME=59
##$REF PAGE=230-240
##$REF DATE=1963
##XYPOINTS=(XY..XY)
247.1048,3.144450
247.1574,3.182843
247.1657,3.112433
247.2053,3.143754
247.2408,3.099941
247.2549,3.111684
247.2597,3.183544
247.2615,3.184799
247.3121,3.083730
247.3300,3.099170
247.4040,3.075438
247.4125,3.082930
247.4800,3.062649
247.4931,3.074522
247.5578,3.051179
247.5691,3.061705
247.6376,3.041365
247.6470,3.050317
247.7314,3.033991
247.7379,3.040373
247.8092,3.021728
247.8204,3.032983
247.8936,3.015980
247.8983,3.020806
247.9847,3.005325
247.9940,3.015044
248.0681,2.998272
248.0737,3.004249
248.1506,2.990123
248.1573,2.997299
248.2426,2.979813
248.2510,2.989130
248.3261,2.972457
248.3317,2.978797
248.4086,2.963804
248.4152,2.971296
248.5024,2.954973
248.5090,2.962748
248.5840,2.944874
248.5916,2.953898
248.6675,2.936896
248.6732,2.943772
248.7632,2.929897
248.7678,2.935634
248.8457,2.920343
248.8523,2.928616
248.9283,2.910574
248.9349,2.919177
249.0230,2.901933
249.0287,2.909380
249.1065,2.892964
249.1121,2.900566
249.1900,2.883964
249.1956,2.891723
249.2857,2.876048
249.2904,2.882695
249.3692,2.866686
249.3748,2.874758
249.4536,2.858448
249.4582,2.865204
249.5483,2.848523
249.5539,2.856936
249.6336,2.841314
249.6375,2.847148
249.7181,2.832576
249.7228,2.839916
249.8137,2.823656
249.8185,2.831147
249.8982,2.814551
249.9029,2.822200
249.9836,2.806937
249.9873,2.813064
250.0793,2.797469
250.0849,2.806920
250.1646,2.789352
250.1683,2.795730
250.2491,2.779491
250.2538,2.787776
250.3447,2.769398
250.3494,2.777676
250.4301,2.760733
250.4338,2.767543
250.5136,2.748484
250.5192,2.759050
250.5989,2.739388
250.6026,2.746537
250.6955,2.730095
250.6993,2.737617
250.7799,2.718772
250.7847,2.728288
250.8654,2.709259
250.8691,2.716917
250.9629,2.701203
250.9657,2.707125
251.0473,2.689091
251.0520,2.699272
251.1336,2.680901
251.1365,2.687105
251.2293,2.668198
251.2339,2.678623
251.3156,2.659337
251.3184,2.665855
251.3991,2.643808
251.4047,2.657210
251.4976,2.636924
251.4995,2.641600
251.5829,2.625127
251.5867,2.634683
251.6693,2.615623
251.6721,2.622825
251.7667,2.605606
251.7697,2.613267
251.8531,2.595660
251.8559,2.603198
251.9394,2.585481
251.9431,2.595636
252.0369,2.574736
252.0407,2.585453
252.1233,2.564048
252.1261,2.572149
252.2096,2.553091
252.2124,2.561397
252.3071,2.541502
252.3099,2.550031
252.3943,2.532774
252.3962,2.538709
252.4816,2.523867
252.4844,2.532746
252.5792,2.511829
252.5820,2.520955
252.6655,2.499452
252.6683,2.508838
252.7528,2.489827
252.7556,2.499421
252.8511,2.479582
252.8531,2.486285
252.9366,2.462946
252.9403,2.476360
253.0228,2.448643
253.0256,2.459181
253.1204,2.434291
253.1232,2.445178
253.2086,2.426692
253.2096,2.430713
253.2968,2.419415
253.2977,2.423051
253.3971,2.415247
253.3981,2.419374
253.4854,2.407774
253.4863,2.411508
253.5735,2.399693
253.5744,2.403497
253.6627,2.395817
253.6636,2.399655
253.7621,2.387503
253.7630,2.391415
253.8502,2.379032
253.8512,2.383517
253.9385,2.370903
253.9403,2.378992
254.0388,2.366240
254.0398,2.370858
254.1270,2.357866
254.1279,2.362052
254.2161,2.353064
254.2171,2.357824
254.3156,2.344424
254.3165,2.348742
254.4037,2.335060
254.4046,2.339471
254.4929,2.330559
254.4938,2.335016
254.5932,2.325439
254.5942,2.330509
254.6813,2.315652
254.6823,2.320836
254.7696,2.306232
254.7714,2.315605
254.8699,2.300815
254.8709,2.306178
254.9581,2.291063
254.9599,2.300767
255.0472,2.285459
255.0482,2.291014
255.1476,2.280404
255.1485,2.285403
255.2367,2.275295
255.2376,2.280353
255.3249,2.264295
255.3258,2.269482
255.4253,2.258985
255.4262,2.264236
255.5143,2.252948
255.5154,2.258933
255.6035,2.247505
255.6044,2.252895
255.7029,2.235760
255.7039,2.241985
255.7930,2.235705
255.8821,2.230039
255.9834,2.229975
256.1607,2.211841
256.1616,2.217690
256.2611,2.205846
256.2620,2.211775
256.3512,2.205786
256.5407,2.192779
256.6298,2.186520
256.6307,2.192717
256.7189,2.179377
256.8080,2.172921
256.8089,2.179314
256.9093,2.172849
256.9985,2.166294
257.0875,2.158808
257.0885,2.166228
257.1888,2.158733
257.3672,2.145080
257.4685,2.145002
257.5575,2.137137
257.7480,2.129936
257.7489,2.136988
257.8380,2.129864
257.9272,2.122622
258.0285,2.122541
258.2067,2.106744
258.3981,2.106584
258.4872,2.098939
258.7677,2.090019
258.7687,2.098701
259.1504,2.089688
259.2396,2.081737
259.7115,2.073293
259.7124,2.081320
259.8015,2.073213
260.4544,2.072625
260.5454,2.080583
260.6467,2.080494
261.1082,2.080085
261.2105,2.087900
261.4919,2.087655
261.4929,2.096383
261.8644,2.096066
261.8653,2.103686
262.0567,2.103525
262.1476,2.110942
262.2377,2.110868
262.3400,2.119064
262.4301,2.118991
262.5210,2.126151
262.7124,2.125998
262.7133,2.133114
262.9947,2.132894
263.0858,2.140697
263.1758,2.140628
263.3690,2.154142
263.4591,2.154075
263.5614,2.161502
263.6515,2.161436
263.7424,2.167933
263.9338,2.167795
263.9347,2.174263
264.0247,2.174199
264.2180,2.187502
264.3081,2.187439
264.3090,2.193623
264.5004,2.193493
264.5914,2.200288
264.7828,2.200160
264.7837,2.206166
264.8738,2.206107
264.8747,2.212033
264.9760,2.211966
264.9770,2.218538
265.0670,2.218480
265.1580,2.224184
265.2593,2.224119
265.3503,2.229749
265.5416,2.229629
265.5427,2.235941
265.6327,2.235886
265.6336,2.241421
265.7237,2.241366
265.7246,2.246833
265.8259,2.246772
265.8269,2.252841
266.0070,2.252734
266.0079,2.258060
266.2002,2.263211
266.2902,2.263158
266.2913,2.269004
266.3813,2.268953
266.3822,2.274085
266.4835,2.274028
266.4844,2.279100
266.6645,2.278999
266.6656,2.284638
266.7669,2.284582
267.1421,2.304457
267.2321,2.304409
267.2330,2.309141
267.3343,2.309088
267.6187,2.323980
267.7087,2.323934
267.7096,2.328460
267.9010,2.328364
267.9019,2.332843
267.9920,2.332798
267.9930,2.337784
268.0830,2.337740
268.0839,2.342124
268.1862,2.346415
268.2762,2.346372
268.2772,2.351205
268.4686,2.351114
268.4695,2.355366
268.5596,2.355323
268.7528,2.364135
268.7537,2.368262
268.9339,2.368180
268.9348,2.372269
269.0361,2.372223
269.0371,2.376778
269.1271,2.376737
269.1280,2.380747
269.2190,2.384680
269.3091,2.384640
269.3101,2.389067
269.4114,2.389023
269.5933,2.396707
269.5943,2.401014
269.6956,2.400971
269.6965,2.404764
269.7866,2.404726
269.8775,2.408448
269.9789,2.408406
269.9799,2.412599
270.0699,2.412562
270.1609,2.416218
270.1618,2.419880
270.2631,2.419839
270.2641,2.423923
270.3542,2.423887
270.3551,2.427486
270.4451,2.427450
271.6843,2.472884
271.6853,2.476500
271.7754,2.476468
271.7763,2.479657
271.8663,2.479626
271.8674,2.483187
271.9687,2.483151
271.9696,2.486292
272.3448,2.498889
272.3458,2.502296
272.5277,2.508228
272.6290,2.508195
272.6300,2.511530
272.7201,2.511500
272.7210,2.514444
272.9143,2.520571
272.9152,2.523454
273.0052,2.523425
273.0061,2.526289
273.0962,2.526261
273.0972,2.529460
273.1994,2.532253
273.2003,2.535060
273.2904,2.535032
273.2914,2.538168
273.3814,2.538140
273.3823,2.540909
273.4837,2.540878
273.4846,2.543629
273.5756,2.546676
273.5765,2.549391
273.6666,2.549364
273.6675,2.552063
273.7688,2.552032
273.7698,2.555048
273.9517,2.560306
273.9527,2.563265
274.0541,2.563236
274.0550,2.565850
274.2370,2.571301
274.2379,2.573867
274.3392,2.573838
274.3401,2.576389
274.4312,2.579216
274.4321,2.581735
274.5221,2.581710
274.5230,2.584215
274.6254,2.586989
274.6263,2.589464
274.7163,2.589439
274.7172,2.591900
274.8073,2.591876
274.8083,2.594628
274.9105,2.597033
274.9114,2.599451
275.0015,2.599427
275.0025,2.602132
275.1958,2.607146
275.1967,2.609509
275.3787,2.614442
275.3796,2.616766
275.4809,2.616740
275.4818,2.619051
275.5729,2.621614
275.5738,2.623900
275.6638,2.623878
275.6647,2.626152
275.7558,2.628673
275.7567,2.630922
275.8589,2.633135
275.8599,2.635638
275.9500,2.635616
275.9509,2.637830
276.0409,2.637808
276.0418,2.640010
276.1442,2.642450
276.1451,2.644629
276.2360,2.646776
276.2370,2.649202
276.3271,2.649181
276.3280,2.651326
276.4302,2.653437
276.4312,2.655827
276.6131,2.660001
276.6142,2.662355
276.8073,2.666465
276.8083,2.668784
276.8984,2.668763
276.9002,2.672856
277.0025,2.675119
277.0034,2.677140
277.1855,2.681365
277.1864,2.683358
277.2886,2.685319
277.2896,2.687540
277.3796,2.687520
277.3805,2.689485
277.4706,2.689466
277.4725,2.693612
277.5747,2.695527
277.5756,2.697456
277.6657,2.697437
277.6667,2.699597
277.7568,2.699578
277.7587,2.703629
277.8609,2.705501
277.8618,2.707386
277.9518,2.707368
277.9529,2.709479
278.0438,2.711328
278.0447,2.713188
278.1470,2.715251
278.1479,2.717094
278.2380,2.717076
278.2399,2.720968
278.3309,2.722769
278.3318,2.724581
278.4341,2.726590
278.4350,2.728386
278.5251,2.728368
278.5260,2.730157
278.6170,2.732143
278.6179,2.733916
278.7201,2.735662
278.7212,2.737641
278.8121,2.739374
278.8130,2.741118
278.9041,2.743055
278.9050,2.744784
278.9950,2.744767
278.9970,2.748419
279.1901,2.751793
279.1911,2.753699
279.2812,2.753682
279.2830,2.757051
279.3853,2.758916
279.3862,2.760584
279.4772,2.762228
279.4782,2.764089
279.5692,2.765721
279.5701,2.767362
279.6724,2.769183
279.6733,2.770812
279.7633,2.770796
279.7653,2.774236
279.8562,2.775830
279.8572,2.777634
279.9594,2.779213
279.9603,2.780805
280.0514,2.782573
280.0523,2.784152
280.1433,2.785710
280.1443,2.787473
280.2465,2.789017
280.2474,2.790573
280.3385,2.792302
280.3394,2.793846
280.4294,2.793831
280.4313,2.797094
280.5336,2.798604
280.5345,2.800127
280.6255,2.801817
280.6273,2.804834
280.7184,2.806507
280.7193,2.808001
280.8206,2.807985
280.8215,2.809474
280.9126,2.811129
280.9135,2.812608
281.0044,2.814067
281.0055,2.815720
281.1068,2.815703
281.1086,2.818625
281.1996,2.820246
281.2014,2.823137
281.2915,2.823123
281.2925,2.824741
281.3947,2.826158
281.3966,2.829189
281.4867,2.829175
281.4885,2.832008
281.5796,2.833579
281.5805,2.834984
281.6827,2.836368
281.6837,2.837938
281.7738,2.837924
281.7756,2.840700
281.8666,2.842241
281.8675,2.843617
281.9699,2.845146
281.9717,2.847877
282.0627,2.849392
282.0636,2.850746
282.1537,2.850733
282.1556,2.853597
282.2466,2.854925
282.2485,2.857762
282.3498,2.857747
282.3507,2.859075
282.4416,2.860387
282.4427,2.861872
282.5336,2.863175
282.5345,2.864487
282.6368,2.865944
282.6386,2.868548
282.7297,2.869993
282.7306,2.871284
282.8216,2.872559
282.8226,2.874004
282.9248,2.875269
282.9267,2.877977
283.0177,2.879232
283.0186,2.880497
283.1096,2.881902
283.1105,2.883159
283.2119,2.883145
283.2138,2.885804
283.3047,2.887037
283.3066,2.889672
283.3967,2.889660
283.3985,2.892126
283.5008,2.893493
283.5017,2.894717
283.5918,2.894705
283.5937,2.897294
283.6847,2.898495
283.6866,2.901062
283.7879,2.901048
283.7898,2.903600
283.8808,2.904784
283.8817,2.905976
283.9727,2.907302
283.9745,2.909670
284.0769,2.910983
284.0778,2.912158
284.1678,2.912146
284.1697,2.914634
284.2607,2.915788
284.2616,2.916951
284.3639,2.918242
284.3657,2.920551
284.4568,2.921833
284.4577,2.922980
284.5486,2.924112
284.5497,2.925395
284.6519,2.926519
284.6528,2.927654
284.7438,2.928915
284.7447,2.930043
284.8357,2.931157
284.8376,2.933538
284.9398,2.934642
284.9417,2.937004
285.0327,2.938100
285.0337,2.939343
285.1238,2.939332
285.1256,2.941532
285.2269,2.941519
285.2297,2.944935
285.3198,2.944924
285.3226,2.948312
285.5046,2.950580
285.5065,2.952858
285.6087,2.953913
285.6097,2.955111
285.7007,2.956163
285.7026,2.958411
285.7936,2.959455
285.7945,2.960506
285.8968,2.961675
285.8986,2.963765
285.9897,2.964925
285.9906,2.965964
286.0815,2.966989
286.0834,2.969183
286.1857,2.970199
286.1867,2.971353
286.2776,2.972366
286.2795,2.974533
286.4727,2.976540
286.4746,2.978686
286.5656,2.979682
286.5666,2.980811
286.6576,2.981802
286.6595,2.983922
286.7617,2.984905
286.7636,2.987010
286.8546,2.987987
286.8555,2.988971
286.9465,2.990067
286.9483,2.992025
287.0507,2.993111
287.0516,2.994084
287.1425,2.995046
287.1444,2.997102
287.2355,2.998177
287.2364,2.999139
287.3386,3.000088
287.3414,3.003074
287.4325,3.004135
287.4334,3.005083
287.5244,3.006021
287.5263,3.008026
287.6285,3.008956
287.6304,3.010947
287.7214,3.011872
287.7224,3.012921
287.8133,3.013841
287.8152,3.015811
287.9175,3.016724
287.9194,3.018681
288.0103,3.019589
288.0122,3.021533
288.1032,3.022435
288.1041,3.023345
288.2064,3.024356
288.2082,3.026166
288.2993,3.027171
288.3011,3.028969
288.3922,3.029968
288.3931,3.030862
288.4953,3.031745
288.4972,3.033635
288.5882,3.034512
288.5892,3.035508
288.6801,3.036382
288.6820,3.038252
288.7730,3.039120
288.7749,3.040979
288.8771,3.041841
288.8781,3.042819
288.9691,3.043679
288.9710,3.045518
289.0620,3.046372
289.0629,3.047233
289.1652,3.048190
289.1661,3.049047
289.2570,3.049894
289.2590,3.051707
289.3499,3.052549
289.3509,3.053504
289.4531,3.054342
289.4551,3.056136
289.5451,3.056128
289.5469,3.057810
289.6380,3.058745
289.6389,3.059582
289.7411,3.060407
289.7421,3.061345
289.8331,3.062169
289.8359,3.064758
289.9259,3.064750
289.9279,3.066502
290.0301,3.067315
290.0310,3.068135
290.1210,3.068127
290.1229,3.069866
290.2139,3.070673
290.2158,3.072401
290.3171,3.072392
290.3190,3.074114
290.4091,3.074106
290.4110,3.075821
290.5020,3.076617
290.5029,3.077420
290.6052,3.078313
290.6061,3.079113
290.6971,3.079904
290.6990,3.081596
290.7899,3.082382
290.7909,3.083273
290.8932,3.084055
290.8941,3.084845
290.9851,3.085724
290.9860,3.086510
291.0770,3.087287
291.0780,3.088169
291.1802,3.088942
291.1811,3.089723
291.2722,3.090592
291.2731,3.091369
291.3640,3.092138
291.3660,3.093783
291.4682,3.094546
291.4692,3.095413
291.5592,3.095406
291.5610,3.096943
291.6521,3.097797
291.6530,3.098562
291.7552,3.099317
291.7571,3.100935
291.9392,3.102532
291.9410,3.104044
292.1343,3.105629
292.1352,3.106381
292.2262,3.107217
292.2280,3.108713
292.3191,3.109544
292.3200,3.110289
292.4213,3.110280
292.4232,3.111858
292.5142,3.112592
292.5152,3.113423
292.6053,3.113416
292.6062,3.114154
292.7084,3.114882
292.7094,3.115710
292.8003,3.116436
292.8012,3.117169
292.8923,3.117985
292.8932,3.118715
292.9954,3.119436
292.9964,3.120255
293.0865,3.120247
293.0874,3.120974
293.1784,3.121692
293.1803,3.123229
293.2816,3.123221
293.2835,3.124752
293.3736,3.124745
293.3745,3.125464
293.4654,3.126175
293.4673,3.127696
293.5686,3.127688
293.5695,3.128402
293.6606,3.129197
293.6615,3.129909
293.7525,3.130612
293.7535,3.131410
293.8548,3.131402
293.8566,3.132817
293.9467,3.132810
293.9477,3.133604
294.0386,3.134301
294.0395,3.135005
294.1408,3.134997
294.1428,3.136488
294.2337,3.137180
294.2347,3.137966
294.3248,3.137959
294.3257,3.138657
294.4279,3.139345
294.4289,3.140127
294.5199,3.140814
294.5209,3.141594
294.6109,3.141587
294.6118,3.142278
294.7141,3.142961
294.7151,3.143737
294.8060,3.144418
294.8069,3.145105
295.0002,3.146547
295.0011,3.147231
295.0922,3.147992
295.0931,3.148674
295.1831,3.148667
295.1840,3.149347
295.2751,3.150105
295.2760,3.150783
295.3773,3.150775
295.3782,3.151453
295.4693,3.152206
295.4702,3.152881
295.5603,3.152875
295.5622,3.154305
295.6635,3.154298
295.6644,3.154970
295.7544,3.154963
295.7553,3.155634
295.8464,3.156380
295.8473,3.157049
295.9486,3.157041
295.9505,3.158458
296.0406,3.158452
296.0415,3.159117
296.1325,3.159775
296.1335,3.160521
296.2348,3.160513
296.2357,3.161175
296.3257,3.161169
296.3266,3.161830
296.4177,3.162566
296.4186,3.163225
296.5208,3.163876
296.5218,3.164615
296.6119,3.164608
296.6128,3.165264
296.7029,3.165258
296.7038,3.165913
296.8061,3.166641
296.8070,3.167294
296.8970,3.167287
296.8979,3.167939
296.9880,3.167933
296.9899,3.169315
297.0912,3.169308
297.0921,3.169957
297.1832,3.170679
297.1841,3.171326
297.2742,3.171319
297.3765,3.172039
297.3774,3.172684
297.4683,3.173321
297.4694,3.174044
297.5594,3.174038
297.5603,3.174680
297.6616,3.174672
297.6625,3.175313
297.7536,3.176027
297.7545,3.176666
297.8446,3.176659
297.8455,3.177298
297.9468,3.177290
297.9478,3.178007
298.0387,3.178637
298.1288,3.178630
298.1297,3.179265
298.2320,3.179972
298.2329,3.180605
298.3230,3.180599
298.4139,3.181225
298.4150,3.181935
298.5050,3.181928
298.5059,3.182559
298.6992,3.183882
298.7001,3.184509
298.7902,3.184503
298.7911,3.185130
298.8934,3.185827
298.9834,3.185820
299.4609,3.188980
299.5509,3.188974
299.5519,3.189671
299.6420,3.189665
299.9262,3.191578
300.0275,3.191571
300.0284,3.192188
300.2086,3.192175
300.2095,3.192791
300.3108,3.192784
300.4928,3.194077
300.5941,3.194070
300.6851,3.194677
300.7751,3.194671
300.8775,3.195353
300.9675,3.195346
301.1607,3.196555
301.3408,3.196543
301.4431,3.197222
301.5332,3.197215
301.6241,3.197818
302.2771,3.197774
302.3775,3.197158
302.4665,3.196466
302.4675,3.197152
302.5566,3.196460
302.6570,3.195843
302.7461,3.195226
302.7470,3.195837
302.9375,3.195213
303.0266,3.194518
303.1166,3.194512
303.3062,3.193271
303.3952,3.192573
303.3962,3.193265
303.4965,3.192566
303.5857,3.191944
303.6749,3.191321
303.6758,3.191938
303.7762,3.191314
303.8652,3.190613
303.9553,3.190607
304.0548,3.189361
304.0557,3.189981
304.1448,3.189355
304.4235,3.187394
304.5135,3.187387
304.6129,3.186055
304.6138,3.186679
304.7030,3.186048
304.8803,3.184079
304.8812,3.184706
304.9807,3.183444
304.9816,3.184072
305.0688,3.182099
305.0697,3.182730
305.1580,3.181462
305.1589,3.182093
305.2583,3.180744
305.2593,3.181455
305.4356,3.178750
305.4366,3.179465
305.6241,3.176746
305.6251,3.177464
305.7133,3.176101
305.7142,3.176740
305.8146,3.176094
305.9038,3.175448
306.0923,3.173429
306.1814,3.172698
306.2705,3.172047
306.2714,3.172692
306.3699,3.170666
306.3709,3.171394
306.4591,3.170012
306.4600,3.170659
306.5472,3.168625
306.5481,3.169275
306.6476,3.167967
306.6485,3.168618
306.7367,3.167227
306.7377,3.167961
306.9262,3.165906
307.2911,3.161025
307.2921,3.161769
307.3802,3.160356
307.5679,3.157599
307.5688,3.158265
307.6560,3.156172
307.6569,3.156841
307.7554,3.154740
307.7574,3.156164
307.8446,3.154061
307.8455,3.154733
307.9327,3.152623
307.9338,3.153381
308.0219,3.151940
308.0228,3.152616
308.1213,3.150494
308.1223,3.151256
308.2105,3.149809
308.2114,3.150487
308.2986,3.148356
308.2996,3.149122
308.3981,3.146983
308.3990,3.147666
308.4872,3.146207
308.4882,3.146977
308.5754,3.144828
308.5763,3.145514
308.6748,3.143358
308.6757,3.144047
308.7630,3.141883
308.7649,3.143351
309.3155,3.133811
309.3174,3.135306
309.4046,3.133099
309.4055,3.133804
309.5040,3.131588
309.5059,3.133091
309.5923,3.130162
309.5932,3.130872
309.6804,3.128642
309.6823,3.130155
309.7798,3.127116
309.7817,3.128634
309.8681,3.125675
309.8690,3.126393
309.9562,3.124139
309.9581,3.125668
310.1448,3.121866
310.1457,3.122590
310.2320,3.119590
310.2339,3.121134
310.3324,3.118853
310.3333,3.119581
310.4197,3.116560
310.4215,3.118024
310.5078,3.114992
310.5087,3.115727
310.6072,3.113417
310.6091,3.114983
310.6955,3.111930
310.6964,3.112670
310.7827,3.109600
310.7855,3.111922
310.8821,3.108005
310.8840,3.109592
310.9712,3.107156
310.9722,3.107998
311.0584,3.104800
311.0603,3.106398
311.1467,3.103283
311.1485,3.104793
311.2461,3.101665
311.2470,3.102424
311.3342,3.100042
311.3352,3.100898
311.4214,3.097648
311.4234,3.099272
311.5219,3.096873
311.5228,3.097639
311.6091,3.094461
311.6110,3.096097
311.6972,3.092810
311.6983,3.093681
311.7957,3.090374
311.7977,3.092026
311.8840,3.088806
311.8858,3.090367
311.9712,3.086349
311.9730,3.087918
312.0706,3.084666
312.0715,3.085455
312.1588,3.082978
312.1598,3.083869
312.2470,3.081383
312.2479,3.082177
312.3455,3.078882
312.3473,3.080479
312.5209,3.074647
312.5237,3.077163
312.6194,3.072107
312.6213,3.073830
312.7085,3.071184
312.7939,3.066984
312.7957,3.068625
312.8933,3.065225
312.8952,3.066975
312.9806,3.062630
312.9825,3.064390
313.0687,3.060854
313.0706,3.062621
313.1672,3.058231
313.1691,3.060010
313.2544,3.055594
313.2564,3.057383
313.3417,3.052941
313.3445,3.055586
313.3464,3.057375
313.4402,3.050270
313.4421,3.052081
313.4458,3.055576
313.4468,3.056524
313.5274,3.047584
313.5293,3.049407
313.6147,3.044881
313.6166,3.046715
313.7142,3.043138
313.7151,3.044006
313.8014,3.040408
313.8032,3.042152
313.8887,3.037660
313.8905,3.039415
313.9759,3.034894
313.9777,3.036660
314.0753,3.033000
314.0762,3.033887
314.1626,3.030204
314.1644,3.031990
314.2498,3.027391
314.2516,3.029188
314.3492,3.025463
314.3501,3.026366
314.4364,3.022618
314.4384,3.024549
314.5237,3.019755
314.5256,3.021698
314.6222,3.016872
314.6241,3.018827
314.7075,3.011992
314.7113,3.015939
314.7948,3.009058
314.7976,3.011983
314.8961,3.009047
314.9796,3.002174
314.9852,3.008098
315.0659,2.998211
315.0688,3.001210
315.1644,2.995180
315.1662,2.997115
315.2507,2.991030
315.2535,2.994078
315.3388,2.988934
315.3398,2.990040
315.4364,2.984846
315.4392,2.987938
315.5227,2.980720
315.5256,2.983842
315.6090,2.976429
315.6118,2.979581
315.7085,2.974387
315.7094,2.975404
315.7947,2.970032
315.7975,2.973231
315.8820,2.966799
315.8839,2.968993
315.9805,2.963540
315.9824,2.965751
316.0677,2.960258
316.0696,2.962486
316.1540,2.955891
316.1569,2.959196
316.2525,2.952549
316.2545,2.954816
316.3398,2.949182
316.3417,2.951467
316.4260,2.944566
316.4289,2.948092
316.5245,2.941135
316.5264,2.943462
316.6118,2.937678
316.6137,2.940024
316.6981,2.933077
316.7009,2.936559
316.7966,2.929554
316.7985,2.931944
316.8847,2.927139
316.8858,2.928413
316.9711,2.922424
316.9739,2.925992
317.0583,2.918815
317.0602,2.921264
317.1568,2.915173
317.1587,2.917644
317.2432,2.910326
317.2460,2.913994
317.3313,2.907801
317.3322,2.908986
317.4289,2.902869
317.4317,2.906601
317.5162,2.899092
317.5180,2.901505
317.6043,2.896502
317.6052,2.897717
317.7028,2.892668
317.7046,2.895117
317.7900,2.888801
317.7918,2.891272
317.8782,2.886148
317.8791,2.887393
317.9758,2.880962
317.9786,2.884886
318.0639,2.878261
318.0648,2.879528
318.1512,2.874263
318.1531,2.876977
318.2497,2.870227
318.2516,2.872966
318.3369,2.866154
318.3388,2.868919
318.4242,2.862043
318.4261,2.864834
318.5227,2.857891
318.5246,2.860709
318.6108,2.855042
318.6127,2.857878
318.6971,2.849470
318.7000,2.853688
318.7965,2.846563
318.7976,2.848096
318.8838,2.842261
318.8857,2.845182
318.9720,2.839480
318.9729,2.840866
319.0704,2.834931
319.0723,2.837901
319.1577,2.830512
319.1596,2.833512
319.2449,2.826047
319.2468,2.829078
319.3434,2.821535
319.3453,2.824597
319.4317,2.818618
319.4326,2.820071
319.5189,2.814029
319.5207,2.816962
319.6183,2.810873
319.6192,2.812353
319.7056,2.806201
319.7075,2.809374
319.7928,2.801478
319.7947,2.804685
319.8922,2.798231
319.8941,2.801461
319.9785,2.791874
319.9814,2.796686
320.0667,2.788555
320.0686,2.791858
320.1539,2.783635
320.1558,2.786976
320.2534,2.780449
320.2552,2.783617
320.3407,2.775436
320.3425,2.778641
320.4288,2.771989
320.4307,2.775420
320.5282,2.768511
320.5292,2.770346
320.6164,2.765008
320.6174,2.766858
320.7027,2.758142
320.7055,2.763341
320.8031,2.756447
320.8040,2.758124
320.8894,2.749229
320.8922,2.754535
321.0770,2.742087
321.0789,2.745762
321.1652,2.738364
321.1662,2.740330
321.2524,2.732837
321.2543,2.736591
321.3519,2.729254
321.3528,2.731039
321.4392,2.723610
321.4410,2.727219
321.6258,2.713951
321.6286,2.719703
321.7139,2.709977
321.7150,2.712075
321.8012,2.704074
321.8040,2.709958
321.9879,2.694208
321.9908,2.700226
322.1755,2.685846
322.1774,2.690026
322.2636,2.681604
322.2646,2.683844
322.3519,2.677573
322.3528,2.679584
322.4504,2.671208
322.4522,2.675278
322.5385,2.666821
322.5394,2.668881
322.6267,2.662389
322.6277,2.664730
322.7252,2.655795
322.7271,2.660273
322.8134,2.651516
322.8143,2.653650
322.9007,2.644756
322.9025,2.649081
323.0001,2.640089
323.0020,2.644732
323.0882,2.635374
323.0892,2.637865
323.1765,2.630888
323.1774,2.633126
323.2646,2.626072
323.2655,2.628334
323.3631,2.618898
323.3650,2.623772
323.4513,2.613946
323.4523,2.616563
323.5385,2.606571
323.5404,2.611584
323.7262,2.596620
323.7281,2.601748
323.9137,2.586125
323.9156,2.591378
324.0020,2.581097
324.0029,2.583606
324.0892,2.573137
324.0910,2.578232
324.1886,2.567627
324.1905,2.573108
324.3650,2.556734
324.3668,2.562024
324.5525,2.545216
324.5545,2.550985
324.6408,2.539689
324.6417,2.542447
324.7402,2.533735
324.7411,2.536532
324.8283,2.527703
324.8302,2.533707
325.0160,2.515743
325.0179,2.521914
325.1041,2.509454
325.1051,2.512779
325.1924,2.503448
325.1933,2.506446
325.2918,2.496973
325.2927,2.500016
325.4682,2.484127
325.4700,2.490372
325.6557,2.470479
325.6576,2.477323
325.7449,2.467189
325.7458,2.470447
325.8443,2.460145
325.8453,2.463869
325.9324,2.452990
325.9334,2.456775
326.0216,2.449563
326.0225,2.452956
326.1210,2.442225
326.1220,2.446105
326.2092,2.435206
326.2101,2.438712
326.3865,2.423990
326.3874,2.427588
326.4859,2.416203
326.4868,2.419866
326.6632,2.404479
326.6641,2.408242
326.7626,2.396331
326.7637,2.400641
326.9399,2.384051
326.9410,2.388484
327.0395,2.376011
327.0404,2.380027
327.2168,2.363133
327.2177,2.367269
327.3162,2.354162
327.3171,2.358385
327.4935,2.340610
327.4944,2.344965
327.5929,2.331157
327.5948,2.340561
327.6820,2.326615
327.6829,2.331112
327.8706,2.312153
327.8715,2.316802
327.9597,2.307407
327.9606,2.312107
328.1473,2.286741
328.1492,2.297146
328.2364,2.281707
328.2373,2.286692
328.5140,2.259697
328.5150,2.265589
328.7026,2.242779
328.7036,2.248904
328.7917,2.237205
328.7926,2.242724
328.9803,2.219370
328.9812,2.225118
329.0695,2.213485
329.0704,2.219312
329.1576,2.200778
329.1585,2.206776
329.3471,2.187617
329.4362,2.181283
329.4371,2.187555
329.5244,2.167582
329.5254,2.174855
329.6248,2.160938
329.7139,2.154200
329.7148,2.160872
329.8030,2.146500
329.8040,2.154132
329.9034,2.139523
329.9043,2.146423
329.9915,2.124415
329.9925,2.132442
330.0807,2.117080
330.0816,2.124343
330.1811,2.109610
330.1820,2.116998
330.2692,2.093404
330.2712,2.109536
330.3584,2.085522
330.3593,2.093327
330.4587,2.076480
330.5488,2.076399
330.7383,2.059830
330.8274,2.050241
330.8284,2.059747
330.9156,2.032723
330.9165,2.041527
331.0169,2.032623
331.1051,2.013202
331.1060,2.022407
331.1942,2.003703
331.2945,1.992762
331.2956,2.003596
331.3837,1.982801
331.3846,1.992665
331.4729,1.972605
331.4738,1.982701
331.5742,1.972490
331.7514,1.937725
331.7524,1.950002
331.9418,1.926272
331.9427,1.937490
332.0310,1.914640
332.0319,1.926158
332.1323,1.914508
332.3096,1.876140
332.3105,1.888712
332.5000,1.861268
332.5010,1.875869
332.6792,1.847592
332.6801,1.861004
332.7796,1.833595
332.7805,1.847439
332.8696,1.833454
333.0591,1.802150
333.1483,1.786600
333.1492,1.801999
333.3386,1.768250
333.3396,1.786266
333.4287,1.768087
333.5178,1.751242
333.6182,1.733696
333.6191,1.751051
333.7073,1.713121
333.8978,1.693735
333.8987,1.712726
334.0779,1.693346
334.1783,1.673240
340.0658,1.257090
##END=
